12
0 66 83 42 61 73 1 25 90 23 16 82 
80 0 96 19 50 35 19 36 95 41 95 2 
85 27 0 66 89 27 47 95 73 75 16 71 
15 42 62 0 29 69 63 16 14 21 2 16 
47 5 28 41 0 29 45 13 82 32 92 40 
10 82 3 14 55 0 34 68 97 64 39 35 
43 50 11 11 8 77 0 2 35 12 31 57 
48 77 88 99 38 35 74 0 69 11 88 72 
21 71 58 56 25 58 79 97 0 32 23 89 
12 50 89 46 54 28 27 9 35 0 55 99 
13 13 9 90 94 72 51 78 98 61 0 61 
69 93 49 27 91 100 31 21 82 67 44 0 
